start f_energy
title "F- gas energy"
memory total 1000 mb
echo
scratch_dir /mnt/c/Users/ddizy/Desktop/qcproject/reactions/sn2_methylchloride_f_attack/runs_nwchem/gas_phase/scratch
permanent_dir /mnt/c/Users/ddizy/Desktop/qcproject/reactions/sn2_methylchloride_f_attack/runs_nwchem/gas_phase/perm

charge -1
geometry units angstrom
 F 0 0 0
end

basis
    * library def2-svpd
end

dft
  xc b3lyp
  mult 1
  grid xfine
  iterations 200
end
task dft energy

#nwchem ~/СH3Cl+F=CH3F+Cl/inputs/gas_env/F_opt_freq.nw > ~/СH3Cl+F=CH3F+Cl/outputs/gas_env/F_opt_freq.out
#grep -i "Total DFT energy" "$HOME/СH3Cl+F=CH3F+Cl/outputs/gas_env/F_opt_freq.out"